Version identifier: 22.1.0.0 | 2022-03-09 | 1a383f8ce
CPXPARAM_Threads                                 1
CPXPARAM_MIP_Strategy_VariableSelect             3
CPXPARAM_TimeLimit                               599.99976761400001
1 of 1 MIP starts provided solutions.
MIP start 'm1' defined initial solution with objective 357.0000.
Tried aggregator 1 time.
MIP Presolve eliminated 726 rows and 1428 columns.
MIP Presolve modified 136 coefficients.
Reduced MIP has 1786 rows, 3213 columns, and 83987 nonzeros.
Reduced MIP has 3213 binaries, 0 generals, 0 SOSs, and 0 indicators.
Presolve time = 0.12 sec. (165.72 ticks)
Probing time = 0.02 sec. (13.53 ticks)
Tried aggregator 1 time.
Detecting symmetries...
MIP Presolve modified 8 coefficients.
Reduced MIP has 1786 rows, 3213 columns, and 84111 nonzeros.
Reduced MIP has 3213 binaries, 0 generals, 0 SOSs, and 0 indicators.
Presolve time = 0.09 sec. (126.96 ticks)
Probing time = 0.02 sec. (13.54 ticks)
Clique table members: 1170.
MIP emphasis: balance optimality and feasibility.
MIP search method: dynamic search.
Parallel mode: none, using 1 thread.
Root relaxation solution time = 0.03 sec. (24.95 ticks)

        Nodes                                         Cuts/
   Node  Left     Objective  IInf  Best Integer    Best Bound    ItCnt     Gap

*     0+    0                          357.0000    63903.0000              --- 
      0     0        cutoff            357.0000                    355     --- 

Root node processing (before b&c):
  Real time             =    0.35 sec. (411.66 ticks)
Sequential b&c:
  Real time             =    0.00 sec. (0.00 ticks)
                          ------------
Total (root+branch&cut) =    0.35 sec. (411.66 ticks)
Primal:	357
Dual:	357
Status:	Optimal
Time:	0.4
Sequence:
	0
	10
	9
	9
	4
	5
	0
	10
	9
	4
	5
	2
	5
	4
	1
	8
	5
	9
	1
	2
	5
	4
	0
	9
	9
	8
	4
	9
	5
	0
	9
	4
	4
	0
	5
	4
	0
	10
	4
	2
	1
	4
	0
	1
	9
	1
	9
	9
	10
	8
	4
	1
	0
	1
	4
	4
	9
	10
	9
	10
	8
	5
	9
	1
	4
	0
	10
	4
	9
	9
	9
	0
	5
	9
	1
	4
	9
	0
	10
	9
	1
	4
	5
	9
	9
	1
	9
	4
	9
	10
	9
	10
	9
	0
	5
	9
	10
	0
	5
	9
	10
	0
	1
	9
	10
	0
	4
	5
	9
	5
	0
	4
	1
	4
	1
	4
	5
	0
	9
	9
	1
	9
	9
	9
	5
	9
	5
	9
	5
	9
	9
	4
	10
	0
	5
	4
	10
	4
	9
	4
	4
	1
	0
	9
	4
	1
	0
	1
	4
	9
	0
	5
	4
	1
	0
	1
	9
	9
	1
	4
	1
	0
	9
	9
	4
	4
	9
	5
	4
	0
	1
	4
	1
	4
	1
	9
	4
	4
	0
	1
	9
	5
	0
	9
	4
	0
	9
	1
	9
	0
	9
	5
	9
	0
	4
	9
	9
	4
	5
	9
	5
	9
	9
	1
	0
	4
	9
	4
	5
	0
	9
	9
	0
	4
	9
	4
	5
	0
	9
	5
	0
	5
	4
	0
	1
	4
	5
	9
	4
	5
	0
	4
	9
	9
	5
	0
	4
	4
	1
	4
	5
	0
	9
	4
	0
	5
	4
	1
	9
	0
	5
	9
	5
	4
	0
	9
	4
	0
	5
	4
	0
	5
	9
	4
	5
	9
	9
	9
	5
	9
	0
	9
	5
	0
	5
	9
	0
	9
	5
	9
	9
	9
	9
	9
	5
	0
	5
	9
	0
	9
	5
	0
	5
	9
	9
	5
	9
	5
	9
	9
	9
	0
	9
	9
	9
	9
	5
	9
	9
	9
	5
	0
	5
	9
	5
	0
	5
	9
	0
	5
	9
	5
	9
	9
	0
	9
	5
	0
	9
	9
	0
	5
	9
	5
	0
	5
	9
	5
	0
	9
	5
	0
	9
	5
	9
	5
	0
	9
	9
	9
	5
	0
	5
	9
	5
	0
	5
